c instance by G2
c solution = 00111111010
c Known solution cost is 429 
p cnf 11 30
w 29 73 78 15 20 37 11 38 35 92 1
-11 -10 -5 0
4 11 -5 0
-2 -11 -9 0
-6 -9 -7 0
-4 3 6 0
-8 6 11 0
-1 -9 -2 0
9 -7 5 0
2 -9 11 0
-2 -4 -5 0
-2 -11 -5 0
8 -10 -1 0
1 7 11 0
9 -10 -11 0
8 -4 1 0
4 -11 3 0
4 -1 5 0
11 6 -10 0
3 -5 1 0
-3 6 5 0
3 6 -5 0
-10 5 -6 0
-7 2 -1 0
8 6 7 0
-6 7 -3 0
10 2 -8 0
6 2 5 0
-5 -9 -8 0
-7 -2 -10 0
10 -8 1 0
